************************************************************************
file with basedata            : md337_.bas
initial value random generator: 1411125888
************************************************************************
projects                      :  1
jobs (incl. supersource/sink ):  22
horizon                       :  167
RESOURCES
  - renewable                 :  2   R
  - nonrenewable              :  2   N
  - doubly constrained        :  0   D
************************************************************************
PROJECT INFORMATION:
pronr.  #jobs rel.date duedate tardcost  MPM-Time
    1     20      0       27        5       27
************************************************************************
PRECEDENCE RELATIONS:
jobnr.    #modes  #successors   successors
   1        1          3           2   3   4
   2        3          3           5   6  11
   3        3          2          14  21
   4        3          2           8  18
   5        3          3          12  13  21
   6        3          3           7   9  14
   7        3          2           8  15
   8        3          1          10
   9        3          3          10  16  18
  10        3          1          17
  11        3          2          12  18
  12        3          3          15  17  20
  13        3          1          16
  14        3          2          15  16
  15        3          1          19
  16        3          2          19  20
  17        3          1          19
  18        3          2          20  21
  19        3          1          22
  20        3          1          22
  21        3          1          22
  22        1          0        
************************************************************************
REQUESTS/DURATIONS:
jobnr. mode duration  R 1  R 2  N 1  N 2
------------------------------------------------------------------------
  1      1     0       0    0    0    0
  2      1     5       9    0    0    8
         2     8       6    0    0    4
         3    10       5    0    0    1
  3      1     2       4    0   10    0
         2     3       2    0    0    7
         3    10       0    6    7    0
  4      1     6       0    3    6    0
         2     7       0    2    5    0
         3     9       6    0    4    0
  5      1     5       0    7    0    7
         2     6       0    5    0    6
         3     8       6    0    9    0
  6      1     2      10    0    0    5
         2     8       9    0    0    4
         3     9       0    7    5    0
  7      1     3       0    7    0    8
         2     4       7    0    0    6
         3     9       7    0    0    5
  8      1     1       0    2    6    0
         2     6       2    0    0    6
         3     8       0    1    6    0
  9      1     7       6    0    0    8
         2     9       3    0    0    6
         3     9       4    0    0    5
 10      1     2       0    6    7    0
         2     2       0    6    0    4
         3     9       0    2    6    0
 11      1     2       7    0    0    9
         2     4       7    0    4    0
         3     7       0    7    0    8
 12      1     1       0    9    0    8
         2     4       8    0    0    5
         3     5       0    5    0    2
 13      1     2       0    2    0    2
         2     2       0    3    8    0
         3     9       8    0    3    0
 14      1     1       6    0    9    0
         2     2       0    8    9    0
         3     5       4    0    8    0
 15      1     3       6    0    0    6
         2     5       0    3    0    5
         3     9       6    0    0    5
 16      1     3       0    9   10    0
         2     4       0    6    8    0
         3     5       7    0    8    0
 17      1     3       0    3    1    0
         2     9       0    2    0    3
         3     9       7    0    1    0
 18      1     3       9    0    8    0
         2     5       7    0    0    6
         3     8       7    0    7    0
 19      1     2       5    0    9    0
         2    10       4    0    0    8
         3    10       5    0    8    0
 20      1    10       0    3    5    0
         2    10       0    9    4    0
         3    10       7    0    0    5
 21      1     3       0    3    0    9
         2     7       0    2    0    9
         3     9       0    2    2    0
 22      1     0       0    0    0    0
************************************************************************
RESOURCEAVAILABILITIES:
  R 1  R 2  N 1  N 2
   13    9   79   86
************************************************************************
MAXIMAL LAGS:
from  to  type  delay
    1   12   ES      0
    1    2   ES      0
    2   12   ES      0
    1    3   ES      0
    3   12   ES      0
    1    4   ES      0
    4   12   ES      0
    1    5   ES      0
    5   12   ES      0
    1    6   ES      0
    6   12   ES      0
    1    7   ES      0
    7   12   ES      0
    1    8   ES      0
    8   12   ES      0
    1    9   ES      0
    9   12   ES      0
    1   10   ES      0
   10   12   ES      0
    1   11   ES      0
   11   12   ES      0
    1   12   ES      0
    2    5   SS     -6
    2    5   SE      5
    2    5   ES      7
    2    5   EE      7
    2    6   SS      8
    2    6   SE      2
    2    6   ES     10
    2    6   EE     -1
    2   11   SS      8
    2   11   SE      0
    2   11   ES     12
    2   11   EE     -6
    3   14   SS     -3
    3   14   SE    -10
    3   14   ES    -11
    3   14   EE      5
    3   21   SS     -2
    3   21   SE      0
    3   21   ES     11
    3   21   EE     11
    4    8   SS     11
    4    8   SE     -8
    4    8   ES      4
    4    8   EE      5
    4   18   SS     -3
    4   18   SE     -6
    4   18   ES    -10
    4   18   EE      4
    5   13   SS      5
    5   13   SE     -3
    5   13   ES      4
    5   13   EE     -2
    5   21   SS     12
    5   21   SE      8
    5   21   ES     -7
    5   21   EE    -12
    6    7   SS    -12
    6    7   SE      5
    6    7   ES      6
    6    7   EE     -4
    6    9   SS     -5
    6    9   SE     12
    6    9   ES     -3
    6    9   EE     11
    6   14   SS      1
    6   14   SE      4
    6   14   ES     -9
    6   14   EE     11
    7    8   SS    -11
    7    8   SE     -1
    7    8   ES     -4
    7    8   EE      8
    7   15   SS      4
    7   15   SE     -1
    7   15   ES     -9
    7   15   EE    -11
    8   10   SS     12
    8   10   SE      8
    8   10   ES     -9
    8   10   EE      2
    9   10   SS     -3
    9   10   SE      6
    9   10   ES     11
    9   10   EE    -12
    9   16   SS      2
    9   16   SE     -2
    9   16   ES     -5
    9   16   EE     11
    9   18   SS      6
    9   18   SE      6
    9   18   ES     10
    9   18   EE      8
   10   17   SS      9
   10   17   SE      5
   10   17   ES      7
   10   17   EE     -5
   11   18   SS     -1
   11   18   SE     -3
   11   18   ES     -3
   11   18   EE      9
   12   15   SS     10
   12   15   SE      6
   12   15   ES      9
   12   15   EE     -8
   12   17   SS     10
   12   17   SE      0
   12   17   ES      4
   12   17   EE     11
   12   20   SS     -5
   12   20   SE     -9
   12   20   ES     -2
   12   20   EE      4
   13   16   SS      6
   13   16   SE     -6
   13   16   ES     12
   13   16   EE     -1
   14   15   SS      2
   14   15   SE     -9
   14   15   ES     -8
   14   15   EE     10
   14   16   SS      1
   14   16   SE      1
   14   16   ES    -10
   14   16   EE    -10
   15   19   SS    -11
   15   19   SE      1
   15   19   ES     -8
   15   19   EE      3
   16   19   SS     -6
   16   19   SE      2
   16   19   ES    -10
   16   19   EE     -1
   16   20   SS      9
   16   20   SE      4
   20   16   SE      0
   16   20   ES      0
   16   20   EE      6
   17   19   SS      5
   17   19   SE      4
   17   19   ES     12
   17   19   EE      0
   18   20   SS     -4
   18   20   SE      6
   18   20   ES      3
   18   20   EE      8
   18   21   SS      1
   18   21   SE      2
   18   21   ES     10
   18   21   EE      3
   19   22   SS     11
   19   22   SE      1
   19   22   ES     -7
   19   22   EE     -8
   20   22   SS      4
   20   22   SE     -8
   20   22   ES      3
   20   22   EE     10
   21   22   SS      2
   21   22   SE     -8
   21   22   ES     10
   21   22   EE      4
************************************************************************
